c 40_3_checker_6cl.cnf
c
c field = 40
c formula set type = 3_checker_6cl
c
p cnf 6 34
72 
74 
76 
-71 
-68 
-80 
73 
75 
77 
-70 
-69 
-81 
72 
74 
76 
-81 
-70 
-82 
73 
75 
77 
-80 
-71 
-83 
74 
76 
80 
-73 
-70 
-82 
75 
77 
81 
-72 
-71 
-83 
74 
76 
80 
-83 
-72 
-84 
75 
77 
81 
-82 
-73 
-85 
76 
80 
82 
-75 
-72 
-84 
77 
81 
83 
-74 
-73 
-85 
76 
80 
82 
-85 
-74 
-86 
77 
81 
83 
-84 
-75 
-87 
80 
82 
84 
-77 
-74 
-86 
81 
83 
85 
-76 
-75 
-87 
80 
82 
84 
-87 
-76 
-88 
81 
83 
85 
-86 
-77 
-89 
48 
108 
138 
-169 
-18 
-198 
49 
109 
139 
-168 
-19 
-199 
108 
138 
168 
-49 
-18 
-198 
109 
139 
169 
-48 
-19 
-199 
108 
138 
168 
-199 
-48 
-228 
109 
139 
169 
-198 
-49 
-229 
46 
110 
142 
-175 
-14 
-206 
47 
111 
143 
-174 
-15 
-207 
110 
142 
174 
-47 
-14 
-206 
111 
143 
175 
-46 
-15 
-207 
110 
142 
174 
-207 
-46 
-238 
111 
143 
175 
-206 
-47 
-239 
50 
106 
134 
-163 
-22 
-190 
51 
107 
135 
-162 
-23 
-191 
106 
134 
162 
-51 
-22 
-190 
107 
135 
163 
-50 
-23 
-191 
106 
134 
162 
-191 
-50 
-218 
107 
135 
163 
-190 
-51 
-219 
